(declare-const b02 Boolean)
(declare-const b03 Boolean)
(declare-const b04 Boolean)
(declare-const b11 Boolean)
(declare-const b13 Boolean)
(declare-const b15 Boolean)
(declare-const b22 Boolean)
(declare-const b21 Boolean)
(declare-const b31 Boolean)
(declare-const b42 Boolean)
(check-sat)
(get-model)
